(set-logic HORN)
(declare-fun assign_184_23_5_abs0 (Int Int Int Int Int) Bool)
(declare-fun assert_175_22_5_abs0 (Int Int Int Int Int) Bool)
(declare-fun assert_161_21_12_abs0 (Int Int Int Int Int) Bool)
(declare-fun while_187_20_1_abs0 (Int Int Int Int Int) Bool)
(declare-fun assign_127_19_1_abs0 (Int Int Int Int Int) Bool)
(declare-fun assign_118_16_5_abs0 (Int Int Int Int Int) Bool)
(declare-fun arrayassign_109_15_5_abs0 (Int Int Int Int Int) Bool)
(declare-fun assert_99_14_12_abs0 (Int Int Int Int Int) Bool)
(declare-fun while_121_13_1_abs0 (Int Int Int Int Int) Bool)
(declare-fun assign_65_12_8_abs0 (Int Int Int Int Int) Bool)
(declare-fun assign_59_10_1_abs0 (Int Int Int Int Int) Bool)
(declare-fun assign_47_9_1_abs0 (Int Int Int Int Int) Bool)
(declare-fun end_abs0 (Int Int Int Int Int) Bool)
(declare-fun start_abs0 (Int Int Int Int Int) Bool)
(assert (forall ((c Int) (N Int) (i Int) (vabs_f_f Int) (a_select Int)) (start_abs0 vabs_f_f a_select c N i)))
(assert (forall ((i Int) (N Int) (c Int) (vabs_0_f_f Int) (a_select Int)) (=> (start_abs0 vabs_0_f_f a_select c N i) (assign_47_9_1_abs0 vabs_0_f_f a_select c N i))))
(assert (forall ((rnd Int) (i Int) (N Int) (c Int) (vabs_0_f_f Int) (a_select Int)) (=> (assign_47_9_1_abs0 vabs_0_f_f a_select c N i) (assign_59_10_1_abs0 vabs_0_f_f a_select c rnd i))))
(assert (forall ((rnd Int) (i Int) (N Int) (c Int) (vabs_0_f_f Int) (a_select Int)) (=> (assign_59_10_1_abs0 vabs_0_f_f a_select c N i) (assign_65_12_8_abs0 vabs_0_f_f a_select rnd N i))))
(assert (forall ((i Int) (N Int) (c Int) (vabs_0_f_f Int) (a_select Int)) (=> (assign_65_12_8_abs0 vabs_0_f_f a_select c N i) (while_121_13_1_abs0 vabs_0_f_f a_select c N 0))))
(assert (forall ((c Int) (N Int) (i Int) (vabs_0_f_f Int) (a_select Int)) (=> (and (while_121_13_1_abs0 vabs_0_f_f a_select c N i) (< i N)) (assert_99_14_12_abs0 vabs_0_f_f a_select c N i))))
(assert (forall ((c Int) (N Int) (i Int) (vabs_0_f_f Int) (a_select Int)) (=> (and (while_121_13_1_abs0 vabs_0_f_f a_select c N i) (not (< i N))) (assign_127_19_1_abs0 vabs_0_f_f a_select c N i))))
(assert (forall ((k Int) (i Int) (N Int) (c Int) (a_select Int)) (=> (and (assert_99_14_12_abs0 k a_select c N i) (<= 0 k) (< k i)) (= a_select c))))
(assert (forall ((i Int) (N Int) (c Int) (vabs_0_f_f Int) (a_select Int)) (=> (assert_99_14_12_abs0 vabs_0_f_f a_select c N i) (arrayassign_109_15_5_abs0 vabs_0_f_f a_select c N i))))
(assert (forall ((i Int) (N Int) (c Int) (vabs_0_f_f Int) (a_select Int)) (=> (arrayassign_109_15_5_abs0 vabs_0_f_f a_select c N i) (assign_118_16_5_abs0 vabs_0_f_f (ite (= i vabs_0_f_f) c a_select) c N i))))
(assert (forall ((i Int) (N Int) (c Int) (vabs_0_f_f Int) (a_select Int)) (=> (assign_118_16_5_abs0 vabs_0_f_f a_select c N i) (while_121_13_1_abs0 vabs_0_f_f a_select c N (+ i 1)))))
(assert (forall ((i Int) (N Int) (c Int) (vabs_0_f_f Int) (a_select Int)) (=> (assign_127_19_1_abs0 vabs_0_f_f a_select c N i) (while_187_20_1_abs0 vabs_0_f_f a_select c N 0))))
(assert (forall ((c Int) (N Int) (i Int) (vabs_0_f_f Int) (a_select Int)) (=> (and (while_187_20_1_abs0 vabs_0_f_f a_select c N i) (< i N)) (assert_161_21_12_abs0 vabs_0_f_f a_select c N i))))
(assert (forall ((c Int) (N Int) (i Int) (vabs_0_f_f Int) (a_select Int)) (=> (and (while_187_20_1_abs0 vabs_0_f_f a_select c N i) (not (< i N))) (end_abs0 vabs_0_f_f a_select c N i))))
(assert (forall ((k Int) (i Int) (N Int) (c Int) (a_select Int)) (=> (and (assert_161_21_12_abs0 k a_select c N i) (<= 0 k) (< k N)) (= a_select c))))
(assert (forall ((i Int) (N Int) (c Int) (vabs_0_f_f Int) (a_select Int)) (=> (assert_161_21_12_abs0 vabs_0_f_f a_select c N i) (assert_175_22_5_abs0 vabs_0_f_f a_select c N i))))
(assert (forall ((i Int) (N Int) (c Int) (a_select Int)) (=> (assert_175_22_5_abs0 i a_select c N i) (= a_select c))))
(assert (forall ((i Int) (N Int) (c Int) (vabs_0_f_f Int) (a_select Int)) (=> (assert_175_22_5_abs0 vabs_0_f_f a_select c N i) (assign_184_23_5_abs0 vabs_0_f_f a_select c N i))))
(assert (forall ((i Int) (N Int) (c Int) (vabs_0_f_f Int) (a_select Int)) (=> (assign_184_23_5_abs0 vabs_0_f_f a_select c N i) (while_187_20_1_abs0 vabs_0_f_f a_select c N (+ i 1)))))
(check-sat)